stress1
stress2
stress3
stress4
stress5
stress6
stress7
stress8
stress9
stress10
stress11
stress12
stress13
stress14
stress15
stress16
stress17
stress18
stress19
stress20
stress21
stress22
stress23
stress24
stress25
stress26
stress27
stress28
stress29
stress30
stress31
stress32
stress33
stress34
stress35
stress36
stress37
stress38
stress39
stress40
stress41
stress42
stress43
stress44
stress45
stress46
stress47
stress48
stress49
stress50
stress51
stress52
stress53
stress54
stress55
stress56
stress57
stress58
stress59
stress60
stress61
stress62
stress63
stress64
stress65
stress66
stress67
stress68
stress69
stress70
stress71
stress72
stress73
stress74
stress75
stress76
stress77
stress78
stress79
stress80
stress81
stress82
stress83
stress84
stress85
stress86
stress87
stress88
stress89
stress90
stress91
stress92
stress93
stress94
stress95
stress96
stress97
stress98
stress99
stress100
stress101
stress102
stress103
stress104
stress105
stress106
stress107
stress108
stress109
stress110
stress111
stress112
stress113
stress114
stress115
stress116
stress117
stress118
stress119
stress120
stress121
stress122
stress123
stress124
stress125
stress126
stress127
stress128
stress129
stress130
stress131
stress132
stress133
stress134
stress135
stress136
stress137
stress138
stress139
stress140
stress141
stress142
stress143
stress144
stress145
stress146
stress147
stress148
stress149
stress150
stress151
stress152
stress153
stress154
stress155
stress156
stress157
stress158
stress159
stress160
stress161
stress162
stress163
stress164
stress165
stress166
stress167
stress168
stress169
stress170
stress171
stress172
stress173
stress174
stress175
stress176
stress177
stress178
stress179
stress180
stress181
stress182
stress183
stress184
stress185
stress186
stress187
stress188
stress189
stress190
stress191
stress192
stress193
stress194
stress195
stress196
stress197
stress198
stress199
stress200
stress201
stress202
stress203
stress204
stress205
stress206
stress207
stress208
stress209
stress210
stress211
stress212
stress213
stress214
stress215
stress216
stress217
stress218
stress219
stress220
stress221
stress222
stress223
stress224
stress225
stress226
stress227
stress228
stress229
stress230
stress231
stress232
stress233
stress234
stress235
stress236
stress237
stress238
stress239
stress240
stress241
stress242
stress243
stress244
stress245
stress246
stress247
stress248
stress249
stress250
stress251
stress252
stress253
stress254
stress255
stress256
stress257
stress258
stress259
stress260
stress261
stress262
stress263
stress264
stress265
stress266
stress267
stress268
stress269
stress270
stress271
stress272
stress273
stress274
stress275
stress276
stress277
stress278
stress279
stress280
stress281
stress282
stress283
stress284
stress285
stress286
stress287
stress288
stress289
stress290
stress291
stress292
stress293
stress294
stress295
stress296
stress297
stress298
stress299
stress300
stress301
stress302
stress303
stress304
stress305
stress306
stress307
stress308
stress309
stress310
stress311
stress312
stress313
stress314
stress315
stress316
stress317
stress318
stress319
stress320
stress321
stress322
stress323
stress324
stress325
stress326
stress327
stress328
stress329
stress330
stress331
stress332
stress333
stress334
stress335
stress336
stress337
stress338
stress339
stress340
stress341
stress342
stress343
stress344
stress345
stress346
stress347
stress348
stress349
stress350
stress351
stress352
stress353
stress354
stress355
stress356
stress357
stress358
stress359
stress360
stress361
stress362
stress363
stress364
stress365
stress366
stress367
stress368
stress369
stress370
stress371
stress372
stress373
stress374
stress375
stress376
stress377
stress378
stress379
stress380
stress381
stress382
stress383
stress384
stress385
stress386
stress387
stress388
stress389
stress390
stress391
stress392
stress393
stress394
stress395
stress396
stress397
stress398
stress399
stress400
stress401
stress402
stress403
stress404
stress405
stress406
stress407
stress408
stress409
stress410
stress411
stress412
stress413
stress414
stress415
stress416
stress417
stress418
stress419
stress420
stress421
stress422
stress423
stress424
stress425
stress426
stress427
stress428
stress429
stress430
stress431
stress432
stress433
stress434
stress435
stress436
stress437
stress438
stress439
stress440
stress441
stress442
stress443
stress444
stress445
stress446
stress447
stress448
stress449
stress450
stress451
stress452
stress453
stress454
stress455
stress456
stress457
stress458
stress459
stress460
stress461
stress462
stress463
stress464
stress465
stress466
stress467
stress468
stress469
stress470
stress471
stress472
stress473
stress474
stress475
stress476
stress477
stress478
stress479
stress480
stress481
stress482
stress483
stress484
stress485
stress486
stress487
stress488
stress489
stress490
stress491
stress492
stress493
stress494
stress495
stress496
stress497
stress498
stress499
stress500
stress501
stress502
stress503
stress504
stress505
stress506
stress507
stress508
stress509
stress510
stress511
stress512
stress513
stress514
stress515
stress516
stress517
stress518
stress519
stress520
stress521
stress522
stress523
stress524
stress525
stress526
stress527
stress528
stress529
stress530
stress531
stress532
stress533
stress534
stress535
stress536
stress537
stress538
stress539
stress540
stress541
stress542
stress543
stress544
stress545
stress546
stress547
stress548
stress549
stress550
stress551
stress552
stress553
stress554
stress555
stress556
stress557
stress558
stress559
stress560
stress561
stress562
stress563
stress564
stress565
stress566
stress567
stress568
stress569
stress570
stress571
stress572
stress573
stress574
stress575
stress576
stress577
stress578
stress579
stress580
stress581
stress582
stress583
stress584
stress585
stress586
stress587
stress588
stress589
stress590
stress591
stress592
stress593
stress594
stress595
stress596
stress597
stress598
stress599
stress600
stress601
stress602
stress603
stress604
stress605
stress606
stress607
stress608
stress609
stress610
stress611
stress612
stress613
stress614
stress615
stress616
stress617
stress618
stress619
stress620
stress621
stress622
stress623
stress624
stress625
stress626
stress627
stress628
stress629
stress630
stress631
stress632
stress633
stress634
stress635
stress636
stress637
stress638
stress639
stress640
stress641
stress642
stress643
stress644
stress645
stress646
stress647
stress648
stress649
stress650
stress651
stress652
stress653
stress654
stress655
stress656
stress657
stress658
stress659
stress660
stress661
stress662
stress663
stress664
stress665
stress666
stress667
stress668
stress669
stress670
stress671
stress672
stress673
stress674
stress675
stress676
stress677
stress678
stress679
stress680
stress681
stress682
stress683
stress684
stress685
stress686
stress687
stress688
stress689
stress690
stress691
stress692
stress693
stress694
stress695
stress696
stress697
stress698
stress699
stress700
stress701
stress702
stress703
stress704
stress705
stress706
stress707
stress708
stress709
stress710
stress711
stress712
stress713
stress714
stress715
stress716
stress717
stress718
stress719
stress720
stress721
stress722
stress723
stress724
stress725
stress726
stress727
stress728
stress729
stress730
stress731
stress732
stress733
stress734
stress735
stress736
stress737
stress738
stress739
stress740
stress741
stress742
stress743
stress744
stress745
stress746
stress747
stress748
stress749
stress750
stress751
stress752
stress753
stress754
stress755
stress756
stress757
stress758
stress759
stress760
stress761
stress762
stress763
stress764
stress765
stress766
stress767
stress768
stress769
stress770
stress771
stress772
stress773
stress774
stress775
stress776
stress777
stress778
stress779
stress780
stress781
stress782
stress783
stress784
stress785
stress786
stress787
stress788
stress789
stress790
stress791
stress792
stress793
stress794
stress795
stress796
stress797
stress798
stress799
stress800
stress801
stress802
stress803
stress804
stress805
stress806
stress807
stress808
stress809
stress810
stress811
stress812
stress813
stress814
stress815
stress816
stress817
stress818
stress819
stress820
stress821
stress822
stress823
stress824
stress825
stress826
stress827
stress828
stress829
stress830
stress831
stress832
stress833
stress834
stress835
stress836
stress837
stress838
stress839
stress840
stress841
stress842
stress843
stress844
stress845
stress846
stress847
stress848
stress849
stress850
stress851
stress852
stress853
stress854
stress855
stress856
stress857
stress858
stress859
stress860
stress861
stress862
stress863
stress864
stress865
stress866
stress867
stress868
stress869
stress870
stress871
stress872
stress873
stress874
stress875
stress876
stress877
stress878
stress879
stress880
stress881
stress882
stress883
stress884
stress885
stress886
stress887
stress888
stress889
stress890
stress891
stress892
stress893
stress894
stress895
stress896
stress897
stress898
stress899
stress900
stress901
stress902
stress903
stress904
stress905
stress906
stress907
stress908
stress909
stress910
stress911
stress912
stress913
stress914
stress915
stress916
stress917
stress918
stress919
stress920
stress921
stress922
stress923
stress924
stress925
stress926
stress927
stress928
stress929
stress930
stress931
stress932
stress933
stress934
stress935
stress936
stress937
stress938
stress939
stress940
stress941
stress942
stress943
stress944
stress945
stress946
stress947
stress948
stress949
stress950
stress951
stress952
stress953
stress954
stress955
stress956
stress957
stress958
stress959
stress960
stress961
stress962
stress963
stress964
stress965
stress966
stress967
stress968
stress969
stress970
stress971
stress972
stress973
stress974
stress975
stress976
stress977
stress978
stress979
stress980
stress981
stress982
stress983
stress984
stress985
stress986
stress987
stress988
stress989
stress990
stress991
stress992
stress993
stress994
stress995
stress996
stress997
stress998
stress999
stress1000